unsat
(:conflicts            1
 :max-generation       1
 :max-memory           30.86
 :memory               22.53
 :mk-bool-var          10292
 :mk-clause            728
 :mk-clause-binary     6625
 :num-allocs           40273623
 :num-checks           1
 :quant-instantiations 764
 :rlimit-count         454995
 :time                 0.05)
